  7	42
 14
  0	 15	 22	 28	 57	 70	  8	 37	 79	 64	  1	 50	 43	 85	
 20
  0	  9	 33	 10	 75	 51	 52	 24	 30	 29	 66	 42	 72	  2	 71	 84	 23	 44	 65	 85	
 20
  0	 35	 17	 59	 19	 77	 14	  5	 25	 61	 56	 13	 47	 12	  7	 55	 67	 54	 49	 85	
 10
  0	 11	  3	 45	 21	 53	  6	 63	 48	 85	
 10
  0	 26	 39	 81	 68	 16	 58	 40	 82	 85	
 10
  0	 27	 32	 41	 20	 69	 74	 62	 83	 85	
 14
  0	 34	 31	 73	  4	 76	 38	 18	 36	 60	 46	 80	 78	 85	
